14° run output:
{
    "Function": "euclidB500.tsp",
    "Problem dimension": [
        357,
        218,
        287,
        2,
        47,
        41,
        379,
        212,
        238,
        245,
        208,
        17,
        474,
        322,
        332,
        164,
        157,
        304,
        393,
        427,
        117,
        307,
        302,
        494,
        67,
        320,
        406,
        151,
        290,
        210,
        471,
        44,
        99,
        159,
        247,
        458,
        211,
        34,
        138,
        433,
        275,
        120,
        423,
        179,
        226,
        395,
        53,
        355,
        121,
        489,
        450,
        37,
        478,
        30,
        251,
        209,
        461,
        328,
        468,
        326,
        188,
        382,
        282,
        464,
        318,
        217,
        147,
        227,
        167,
        469,
        281,
        58,
        378,
        16,
        73,
        280,
        363,
        43,
        407,
        472,
        97,
        451,
        283,
        48,
        414,
        216,
        341,
        54,
        413,
        14,
        205,
        0,
        445,
        462,
        454,
        173,
        90,
        154,
        380,
        261,
        266,
        200,
        3,
        431,
        101,
        288,
        366,
        295,
        163,
        31,
        324,
        409,
        323,
        421,
        276,
        183,
        140,
        148,
        27,
        193,
        169,
        171,
        46,
        153,
        277,
        265,
        449,
        161,
        60,
        364,
        76,
        50,
        61,
        359,
        1,
        394,
        257,
        362,
        259,
        185,
        232,
        139,
        75,
        18,
        152,
        118,
        479,
        224,
        174,
        256,
        298,
        45,
        398,
        319,
        202,
        165,
        124,
        384,
        110,
        225,
        241,
        92,
        334,
        411,
        463,
        39,
        386,
        286,
        344,
        102,
        189,
        483,
        339,
        418,
        292,
        84,
        134,
        279,
        383,
        258,
        125,
        40,
        80,
        452,
        72,
        197,
        496,
        360,
        396,
        105,
        443,
        178,
        255,
        465,
        488,
        221,
        15,
        456,
        373,
        403,
        36,
        162,
        160,
        246,
        490,
        109,
        305,
        296,
        270,
        358,
        467,
        123,
        196,
        52,
        219,
        141,
        415,
        372,
        112,
        284,
        493,
        425,
        65,
        204,
        237,
        4,
        314,
        430,
        231,
        89,
        274,
        348,
        115,
        229,
        59,
        29,
        432,
        172,
        491,
        337,
        66,
        495,
        129,
        367,
        6,
        35,
        486,
        243,
        187,
        203,
        13,
        369,
        144,
        190,
        7,
        272,
        475,
        365,
        343,
        317,
        56,
        104,
        412,
        114,
        186,
        338,
        422,
        63,
        242,
        180,
        273,
        263,
        191,
        410,
        485,
        57,
        253,
        482,
        108,
        335,
        435,
        354,
        381,
        351,
        77,
        387,
        166,
        340,
        100,
        12,
        346,
        70,
        239,
        113,
        321,
        11,
        9,
        368,
        499,
        168,
        420,
        143,
        184,
        26,
        269,
        55,
        480,
        375,
        119,
        249,
        440,
        438,
        455,
        235,
        126,
        22,
        252,
        389,
        424,
        434,
        313,
        441,
        267,
        262,
        69,
        62,
        199,
        330,
        127,
        312,
        236,
        429,
        213,
        21,
        416,
        439,
        388,
        228,
        128,
        426,
        356,
        308,
        392,
        315,
        331,
        377,
        10,
        376,
        122,
        116,
        38,
        476,
        182,
        301,
        137,
        402,
        83,
        88,
        453,
        71,
        293,
        49,
        498,
        177,
        248,
        391,
        91,
        74,
        78,
        470,
        417,
        79,
        107,
        93,
        132,
        289,
        345,
        448,
        42,
        176,
        278,
        299,
        254,
        25,
        428,
        111,
        240,
        385,
        316,
        5,
        437,
        399,
        33,
        8,
        136,
        142,
        95,
        481,
        294,
        459,
        81,
        195,
        51,
        103,
        329,
        473,
        442,
        149,
        133,
        223,
        130,
        64,
        198,
        336,
        285,
        175,
        349,
        497,
        466,
        264,
        214,
        271,
        352,
        477,
        146,
        460,
        23,
        309,
        220,
        484,
        374,
        28,
        250,
        291,
        68,
        419,
        106,
        86,
        181,
        325,
        145,
        215,
        94,
        24,
        333,
        397,
        150,
        370,
        492,
        194,
        32,
        192,
        408,
        371,
        230,
        401,
        233,
        361,
        353,
        156,
        400,
        244,
        135,
        234,
        155,
        390,
        19,
        20,
        170,
        457,
        131,
        446,
        206,
        201,
        342,
        306,
        311,
        347,
        310,
        303,
        207,
        96,
        444,
        436,
        405,
        327,
        87,
        297,
        222,
        300,
        82,
        404,
        268,
        447,
        487,
        85,
        260,
        350,
        98,
        158
    ],
    "Global Optimum": 0,
    "Algorithm": "Genetic algorithm",
    "Parameters": {
        "population": 30,
        "offspring": 30,
        "mutation probability": 0.002,
        "crossover probability": 0.9
    },
    "Fitness": 586067,
    "Solution": [
        357,
        218,
        287,
        2,
        47,
        41,
        379,
        212,
        238,
        245,
        208,
        17,
        474,
        322,
        332,
        164,
        157,
        304,
        393,
        427,
        117,
        307,
        302,
        494,
        67,
        320,
        406,
        151,
        290,
        210,
        471,
        44,
        99,
        159,
        247,
        458,
        211,
        34,
        138,
        433,
        275,
        120,
        423,
        179,
        226,
        395,
        53,
        355,
        121,
        489,
        450,
        37,
        478,
        30,
        251,
        209,
        461,
        328,
        468,
        326,
        188,
        382,
        282,
        464,
        318,
        217,
        147,
        227,
        167,
        469,
        281,
        58,
        378,
        16,
        73,
        280,
        363,
        43,
        407,
        472,
        97,
        451,
        283,
        48,
        414,
        216,
        341,
        54,
        413,
        14,
        205,
        0,
        445,
        462,
        454,
        173,
        90,
        154,
        380,
        261,
        266,
        200,
        3,
        431,
        101,
        288,
        366,
        295,
        163,
        31,
        324,
        409,
        323,
        421,
        276,
        183,
        140,
        148,
        27,
        193,
        169,
        171,
        46,
        153,
        277,
        265,
        449,
        161,
        60,
        364,
        76,
        50,
        61,
        359,
        1,
        394,
        257,
        362,
        259,
        185,
        232,
        139,
        75,
        18,
        152,
        118,
        479,
        224,
        174,
        256,
        298,
        45,
        398,
        319,
        202,
        165,
        124,
        384,
        110,
        225,
        241,
        92,
        334,
        411,
        463,
        39,
        386,
        286,
        344,
        102,
        189,
        483,
        339,
        418,
        292,
        84,
        134,
        279,
        383,
        258,
        125,
        40,
        80,
        452,
        72,
        197,
        496,
        360,
        396,
        105,
        443,
        178,
        255,
        465,
        488,
        221,
        15,
        456,
        373,
        403,
        36,
        162,
        160,
        246,
        490,
        109,
        305,
        296,
        270,
        358,
        467,
        123,
        196,
        52,
        219,
        141,
        415,
        372,
        112,
        284,
        493,
        425,
        65,
        204,
        237,
        4,
        314,
        430,
        231,
        89,
        274,
        348,
        115,
        229,
        59,
        29,
        432,
        172,
        491,
        337,
        66,
        495,
        129,
        367,
        6,
        35,
        486,
        243,
        187,
        203,
        13,
        369,
        144,
        190,
        7,
        272,
        475,
        365,
        343,
        317,
        56,
        104,
        412,
        114,
        186,
        338,
        422,
        63,
        242,
        180,
        273,
        263,
        191,
        410,
        485,
        57,
        253,
        482,
        108,
        335,
        435,
        354,
        381,
        351,
        77,
        387,
        166,
        340,
        100,
        12,
        346,
        70,
        239,
        113,
        321,
        11,
        9,
        368,
        499,
        168,
        420,
        143,
        184,
        26,
        269,
        55,
        480,
        375,
        119,
        249,
        440,
        438,
        455,
        235,
        126,
        22,
        252,
        389,
        424,
        434,
        313,
        441,
        267,
        262,
        69,
        62,
        199,
        330,
        127,
        312,
        236,
        429,
        213,
        21,
        416,
        439,
        388,
        228,
        128,
        426,
        356,
        308,
        392,
        315,
        331,
        377,
        10,
        376,
        122,
        116,
        38,
        476,
        182,
        301,
        137,
        402,
        83,
        88,
        453,
        71,
        293,
        49,
        498,
        177,
        248,
        391,
        91,
        74,
        78,
        470,
        417,
        79,
        107,
        93,
        132,
        289,
        345,
        448,
        42,
        176,
        278,
        299,
        254,
        25,
        428,
        111,
        240,
        385,
        316,
        5,
        437,
        399,
        33,
        8,
        136,
        142,
        95,
        481,
        294,
        459,
        81,
        195,
        51,
        103,
        329,
        473,
        442,
        149,
        133,
        223,
        130,
        64,
        198,
        336,
        285,
        175,
        349,
        497,
        466,
        264,
        214,
        271,
        352,
        477,
        146,
        460,
        23,
        309,
        220,
        484,
        374,
        28,
        250,
        291,
        68,
        419,
        106,
        86,
        181,
        325,
        145,
        215,
        94,
        24,
        333,
        397,
        150,
        370,
        492,
        194,
        32,
        192,
        408,
        371,
        230,
        401,
        233,
        361,
        353,
        156,
        400,
        244,
        135,
        234,
        155,
        390,
        19,
        20,
        170,
        457,
        131,
        446,
        206,
        201,
        342,
        306,
        311,
        347,
        310,
        303,
        207,
        96,
        444,
        436,
        405,
        327,
        87,
        297,
        222,
        300,
        82,
        404,
        268,
        447,
        487,
        85,
        260,
        350,
        98,
        158
    ],
    "Nb of functions evaluations": 200010,
    "Computational time in seconds": 930.7960832118988,
    "Stopping criterion in evaluations": 200000
}